50
150
99
99
98
98
97
95
92
92
87
85
84
83
80
78
77
75
73
73
69
68
66
63
63
63
59
57
56
56
53
53
51
50
50
48
48
46
46
44
43
42
39
37
34
32
29
25
24
22
22
21
